
--- Job MasterOPF.gms Start 09/08/17 22:21:02 24.5.6 r55090 WEX-WEI x86 64bit/MS Windows
GAMS 24.5.6   Copyright (C) 1987-2015 GAMS Development. All rights reserved
Licensee: Medium MUD - 10 User License                   G170505:1033AO-GEN
          Penn State University, John & Willie Leone Dept of Energy DC11293
          License for teaching and research at degree granting institutions
          License_Admin:_Mort_Webster,_mort@psu.edu________________________
--- Starting compilation
--- MasterOPF.gms(21) 2 Mb
--- .30Bus.inc(371) 3 Mb
--- MasterOPF.gms(94) 3 Mb
--- .OpfOut.INC(96) 3 Mb
--- MasterOPF.gms(94) 3 Mb
--- Starting execution: elapsed 0:00:00.042
--- MasterOPF.gms(462) 132 Mb
--- Generating MIP model opf
--- MasterOPF.gms(463) 175 Mb
---   124,606 rows  5,057 columns  374,822 non-zeroes
---   196 discrete-columns
--- Executing CPLEX: elapsed 0:00:01.895

IBM ILOG CPLEX   24.5.6 r55090 Released Nov 27, 2015 WEI x86 64bit/MS Windows 
--- GAMS/Cplex licensed for continuous and discrete problems.
Cplex 12.6.2.0

Reading data...
Starting Cplex...
Space for names approximately 5.29 Mb
Use option 'names no' to turn use of names off
Found incumbent of value 283598.693333 after 0.00 sec. (1.46 ticks)
Tried aggregator 2 times.
MIP Presolve eliminated 55216 rows and 136 columns.
MIP Presolve modified 139878 coefficients.
Aggregator did 36 substitutions.
Reduced MIP has 69354 rows, 4885 columns, and 262413 nonzeros.
Reduced MIP has 196 binaries, 0 generals, 0 SOSs, and 0 indicators.
Presolve time = 0.20 sec. (204.28 ticks)
Probing time = 0.02 sec. (11.26 ticks)
Tried aggregator 1 time.
MIP Presolve modified 1701 coefficients.
Reduced MIP has 69354 rows, 4885 columns, and 262413 nonzeros.
Reduced MIP has 196 binaries, 0 generals, 0 SOSs, and 0 indicators.
Presolve time = 0.19 sec. (109.37 ticks)
Probing time = 0.02 sec. (10.62 ticks)
MIP emphasis: balance optimality and feasibility.
MIP search method: dynamic search.
Parallel mode: none, using 1 thread.

Iteration log . . .
Iteration:     1   Dual objective     =           305.333333
Perturbation started.
Iteration:   101   Dual objective     =           305.333333
Iteration:   577   Dual objective     =           305.345941
Iteration:  1188   Dual objective     =           305.356634
Iteration:  1933   Dual objective     =           305.363357
Iteration:  2282   Dual objective     =           305.367317
Iteration:  2431   Dual objective     =           305.368440
Iteration:  2596   Dual objective     =           305.368778
Iteration:  3155   Dual objective     =           305.371012
Iteration:  3798   Dual objective     =           305.373524
Iteration:  4213   Dual objective     =           305.397559
Iteration:  4592   Dual objective     =           360.981609
Iteration:  4939   Dual objective     =           433.595329
Iteration:  5322   Dual objective     =           468.258660
Iteration:  5699   Dual objective     =           544.131397
Iteration:  6067   Dual objective     =           562.021930
Iteration:  6407   Dual objective     =           657.433165
Iteration:  6795   Dual objective     =           662.187026
Iteration:  6952   Dual objective     =           662.211760
Iteration:  7353   Dual objective     =           684.201068
Iteration:  7719   Dual objective     =           697.706776
Iteration:  8103   Dual objective     =           713.427535
Iteration:  8523   Dual objective     =           715.851101
Iteration:  8974   Dual objective     =           717.757787
Iteration:  9359   Dual objective     =           718.447378
Removing perturbation.
Iteration:  9381   Scaled dual infeas =             0.000000
Iteration:  9382   Dual objective     =           718.406709
Root relaxation solution time = 11.94 sec. (6152.52 ticks)

        Nodes                                         Cuts/
   Node  Left     Objective  IInf  Best Integer    Best Bound    ItCnt     Gap

*     0+    0                       283598.6933      305.3333            99.89%
Found incumbent of value 283598.693333 after 12.42 sec. (6541.05 ticks)
      0     0      718.4067     9   283598.6933      718.4067     9382   99.75%
*     0+    0                         7342.0232      718.4067            90.22%
Found incumbent of value 7342.023212 after 14.11 sec. (7442.16 ticks)
      0     0      725.8395    17     7342.0232      Cuts: 60     9812   90.11%
      0     0      766.1256    12     7342.0232      Cuts: 48    10337   89.57%
      0     0      766.6998    13     7342.0232      Cuts: 19    10582   89.56%
      0     0      767.2702    13     7342.0232      Cuts: 25    10837   89.55%
      0     0      767.3697    17     7342.0232      Cuts: 15    10972   89.55%
      0     0      767.3778    14     7342.0232    MIRcuts: 4    11028   89.55%
      0     0      767.3892    14     7342.0232    MIRcuts: 3    11036   89.55%
*     0+    0                         4450.1311      767.3892            82.76%
Found incumbent of value 4450.131050 after 67.08 sec. (35606.09 ticks)
*     0+    0                         4213.5397      767.3892            81.79%
Found incumbent of value 4213.539670 after 68.78 sec. (36555.27 ticks)
      0     2      767.3892    14     4213.5397      767.3942    11036   81.79%
Elapsed time = 78.61 sec. (41789.60 ticks, tree = 0.00 MB, solutions = 4)
      2     4      772.3555    13     4213.5397      767.4633    11665   81.79%
      3     5      767.4682    12     4213.5397      767.4714    11706   81.79%
      4     6      767.8268    11     4213.5397      767.4714    12001   81.79%
      5     7      782.1862    10     4213.5397      767.4714    12790   81.79%
      6     8      768.2608    12     4213.5397      767.4714    13065   81.79%
      7     9      770.9909    11     4213.5397      767.4714    14002   81.79%
      8    10      769.1542    16     4213.5397      767.4714    14803   81.79%
      9    11      770.3064    12     4213.5397      767.4714    15642   81.79%
     10    12      770.7768     9     4213.5397      767.4714    16175   81.79%
     11    13      770.9119    10     4213.5397      767.4714    16375   81.79%
Elapsed time = 96.59 sec. (52045.91 ticks, tree = 0.10 MB, solutions = 4)
     13    15      771.0314    13     4213.5397      767.4714    17244   81.79%
     14    16      781.1119     8     4213.5397      767.4714    17588   81.79%
     15    17      781.9889     9     4213.5397      767.4714    17799   81.79%
     16    18      786.6773     6     4213.5397      767.4714    18425   81.79%
     17    19      787.1492     8     4213.5397      767.4714    18654   81.79%
     18    20      802.8609     3     4213.5397      767.4714    19369   81.79%
     19    21      972.5211    18     4213.5397      767.4714    24671   81.79%
*    20+   20                          805.6176      767.4714             4.74%
Found incumbent of value 805.617645 after 117.56 sec. (62140.07 ticks)
     24    19      804.9768     3      805.6176      767.4714    25155    4.74%
     25    19      805.0223     3      805.6176      767.4714    25231    4.74%
     26    20      805.2229     4      805.6176      767.4714    25456    4.74%
Elapsed time = 119.81 sec. (63442.56 ticks, tree = 0.18 MB, solutions = 5)
*    33    20      integral     0      805.6176      767.4714    25942    4.74%
Found incumbent of value 805.617645 after 120.55 sec. (63953.70 ticks)
     34    21      776.3638    11      805.6176      769.1692    26936    4.52%
     35    22      778.0418    10      805.6176      769.1692    26964    4.52%
     36    23      778.5499     7      805.6176      769.1692    27219    4.52%
     37    24      778.7116     7      805.6176      769.1692    27301    4.52%
     38    25      780.0525     7      805.6176      769.1692    27839    4.52%
     39    26      779.3305     9      805.6176      769.1692    28042    4.52%
     40    27      782.0141     8      805.6176      769.1692    28488    4.52%
     41    28      779.6129     8      805.6176      769.1692    28755    4.52%
     42    29      779.6529    10      805.6176      769.1692    28931    4.52%
     43    30      800.2061    10      805.6176      769.1692    29764    4.52%
Elapsed time = 133.44 sec. (70832.12 ticks, tree = 0.27 MB, solutions = 6)
     44    31      779.6958     9      805.6176      769.1692    29847    4.52%
     45    32      779.8463    10      805.6176      769.1692    29962    4.52%
     46    33      786.4834    10      805.6176      769.1692    30280    4.52%
     47    34      779.8909    10      805.6176      769.1692    30372    4.52%
     48    35      789.0118     7      805.6176      769.1692    30989    4.52%
     49    36      789.9184     6      805.6176      769.1692    31283    4.52%
     50    37      790.6168     5      805.6176      769.1692    31655    4.52%
     51    38      790.9280     7      805.6176      769.1692    31892    4.52%
     52    39      803.0692     5      805.6176      769.1692    32481    4.52%
     53    40      791.1151     8      805.6176      769.1692    32680    4.52%
Elapsed time = 148.17 sec. (76954.27 ticks, tree = 0.36 MB, solutions = 6)
     57    40      791.3828     6      805.6176      769.1692    33633    4.52%
     58    41      791.4724     7      805.6176      769.1692    33925    4.52%
     59    40        cutoff            805.6176      769.1692    34005    4.52%
     60    41      791.6518     6      805.6176      769.1692    34283    4.52%
     61    42      791.8717     6      805.6176      769.1692    34488    4.52%
     62    41        cutoff            805.6176      769.1692    35000    4.52%
     63    42      792.0676     6      805.6176      769.1692    35187    4.52%
     64    43      805.5541     5      805.6176      769.1692    35541    4.52%
     65    44      792.3831     8      805.6176      769.1692    35784    4.52%
     66    45      798.5372     2      805.6176      769.1692    36550    4.52%
Elapsed time = 162.25 sec. (83077.99 ticks, tree = 0.42 MB, solutions = 6)
     70    49      798.6527     2      805.6176      769.1692    36988    4.52%
     71    48        cutoff            805.6176      769.1692    37050    4.52%
     72    49      798.6835     2      805.6176      769.1692    37093    4.52%
     73    48        cutoff            805.6176      769.1692    37145    4.52%
     74    49      798.8851     3      805.6176      769.1692    37243    4.52%
     75    48        cutoff            805.6176      769.1692    37314    4.52%
     76    49      798.9716     3      805.6176      769.1692    37512    4.52%
     77    48        cutoff            805.6176      769.1692    37597    4.52%
     78    49      799.1721     3      805.6176      769.1692    37823    4.52%
     79    50      803.8740     1      805.6176      769.1692    38076    4.52%
Elapsed time = 167.28 sec. (85744.89 ticks, tree = 0.47 MB, solutions = 6)
*    80+   43                          804.1624      769.1692             4.35%
Found incumbent of value 804.162420 after 167.45 sec. (85872.28 ticks)
     86    43      769.3913    13      804.1624      769.1774    38521    4.35%
                                                   MIRcuts: 1                  
     87    44      771.0968    12      804.1624      769.1774    38560    4.35%
     88    45      771.7368    11      804.1624      769.1774    39054    4.35%
     89    46      772.0695    13      804.1624      769.1774    39356    4.35%
     90    47      772.2279    11      804.1624      769.1774    39515    4.35%
     91    48      772.4532    11      804.1624      769.1774    39848    4.35%
     92    49      772.4743    11      804.1624      769.1774    39997    4.35%
     93    50      772.5627     9      804.1624      769.1774    40254    4.35%
     94    51      772.8506    11      804.1624      769.1774    40377    4.35%
     95    52      772.8547    10      804.1624      769.1774    40432    4.35%
Elapsed time = 177.23 sec. (90950.20 ticks, tree = 0.48 MB, solutions = 7)
     99    56      773.4397    10      804.1624      769.1774    41154    4.35%
    100    57      773.4887    10      804.1624      769.1774    41199    4.35%
    101    58      773.4900    10      804.1624      769.1774    41219    4.35%
    102    59      773.5227    12      804.1624      769.1774    41304    4.35%
    103    60      773.5231    10      804.1624      769.1774    41305    4.35%
    104    61      774.0091     8      804.1624      769.1774    41582    4.35%
    105    62      774.0228     9      804.1624      769.1774    41624    4.35%
    106    63      774.1920     8      804.1624      769.1774    41862    4.35%
    107    64      774.2282     8      804.1624      769.1774    41928    4.35%
    108    65      774.2377     8      804.1624      769.1774    41951    4.35%
Elapsed time = 182.19 sec. (93441.37 ticks, tree = 0.61 MB, solutions = 7)
    112    69      774.7987     9      804.1624      769.1774    42588    4.35%
    113    70      775.6255     9      804.1624      769.1774    43095    4.35%
    114    71      775.6503     8      804.1624      769.1774    43218    4.35%
    115    72      775.6517     8      804.1624      769.1774    43241    4.35%
    116    73      775.6935     7      804.1624      769.1774    43448    4.35%
    117    74      775.6981     7      804.1624      769.1774    43489    4.35%
    118    75      775.6994     6      804.1624      769.1774    43517    4.35%
    119    76      776.4239     5      804.1624      769.1774    43896    4.35%
    120    77      776.8406     7      804.1624      769.1774    44183    4.35%
    121    78      776.8646     7      804.1624      769.1774    44237    4.35%
Elapsed time = 193.22 sec. (99084.08 ticks, tree = 0.73 MB, solutions = 7)
    124    81      778.3998     7      804.1624      769.1774    45207    4.35%
    125    82      778.5388     7      804.1624      769.1774    45352    4.35%
    126    83      778.7936     7      804.1624      769.1774    45505    4.35%
    127    84      779.3263     7      804.1624      769.1774    45712    4.35%
    128    85      780.0143     8      804.1624      769.1774    46083    4.35%
    129    86      780.1961     7      804.1624      769.1774    46418    4.35%
    130    87      780.4094     8      804.1624      769.1774    46719    4.35%
    131    88      780.5299     7      804.1624      769.1774    47008    4.35%
    132    89      780.8949    10      804.1624      769.1774    47184    4.35%
    133    90      781.2782     9      804.1624      769.1774    47486    4.35%
Elapsed time = 206.00 sec. (105423.16 ticks, tree = 0.85 MB, solutions = 7)
    145   102      786.5474     7      804.1624      769.1774    50100    4.35%
    146   103      786.6805     7      804.1624      769.1774    50136    4.35%
    147   104      786.7032     6      804.1624      769.1774    50186    4.35%
    148   105      787.1281     5      804.1624      769.1774    50302    4.35%
    149   106      788.3799     8      804.1624      769.1774    50726    4.35%
    150   107      788.5161     7      804.1624      769.1774    50920    4.35%
    151   108      788.8842     8      804.1624      769.1774    51105    4.35%
    152   109      788.9616     7      804.1624      769.1774    51243    4.35%
    153   110      789.1508     6      804.1624      769.1774    51523    4.35%
    154   111      789.2964     9      804.1624      769.1774    51760    4.35%
Elapsed time = 220.31 sec. (112689.22 ticks, tree = 1.05 MB, solutions = 7)
    164   121      802.7546     7      804.1624      769.1774    54672    4.35%
    165   122      803.0077     7      804.1624      769.1774    55019    4.35%
    166   123      803.3604     7      804.1624      769.1774    55181    4.35%
    167   124      803.8916     7      804.1624      769.1774    55578    4.35%
    168   125      804.0102     8      804.1624      769.1774    55746    4.35%
    169   126      804.0605     7      804.1624      769.1774    55872    4.35%
    170   125        cutoff            804.1624      769.1774    55894    4.35%
    171   124        cutoff            804.1624      769.1774    55901    4.35%
    172   125      780.4678    11      804.1624      769.5511    57222    4.30%
    173   126      782.1326     9      804.1624      769.5511    57452    4.30%
Elapsed time = 236.92 sec. (121133.51 ticks, tree = 1.19 MB, solutions = 7)
*   180+  117                          796.3598      769.5511             3.37%
Found incumbent of value 796.359844 after 247.78 sec. (127632.46 ticks)
    200   139      784.2534     8      796.3598      769.5511    60472    3.37%
    201   140      784.2591     7      796.3598      769.5511    60520    3.37%
    202   141      784.9099     7      796.3598      769.5511    60800    3.37%
    203   142      785.5701     7      796.3598      769.5511    61029    3.37%
    204   143      785.6042     7      796.3598      769.5511    61130    3.37%
    205   144      785.9561     7      796.3598      769.5511    61388    3.37%
    206   145      786.1011     8      796.3598      769.5511    61557    3.37%
    207   146      786.1522     8      796.3598      769.5511    61652    3.37%
    208   147      786.2106     8      796.3598      769.5511    61808    3.37%
    209   148      786.4737     8      796.3598      769.5511    62124    3.37%
Elapsed time = 259.63 sec. (133997.84 ticks, tree = 1.41 MB, solutions = 8)
    244   183      790.9834     3      796.3598      769.5511    64854    3.37%
    245   184      791.0731     4      796.3598      769.5511    65040    3.37%
    246   185      791.0952     3      796.3598      769.5511    65145    3.37%
    247   186      793.7654     4      796.3598      769.5511    65520    3.37%
    248   187      793.8779     4      796.3598      769.5511    65803    3.37%
    249   188      794.4756     5      796.3598      769.5511    66106    3.37%
    250   189      794.9559     5      796.3598      769.5511    66551    3.37%
    251   190      796.2098     3      796.3598      769.5511    67135    3.37%
    252   189        cutoff            796.3598      769.5511    67174    3.37%
    253   188        cutoff            796.3598      769.5511    67177    3.37%
Elapsed time = 274.09 sec. (141395.77 ticks, tree = 31.20 MB, solutions = 8)
    255   188      781.8441     7      796.3598      770.9983    69088    3.18%
    256   189      783.4987     6      796.3598      770.9983    69102    3.18%
    257   190      783.5050     4      796.3598      770.9983    69106    3.18%
    258   191      784.1830     4      796.3598      770.9983    69408    3.18%
    259   192      788.4666     4      796.3598      770.9983    69795    3.18%
    260   193      784.4871     3      796.3598      770.9983    69997    3.18%
    261   194      784.8724     6      796.3598      770.9983    70306    3.18%
    262   195      791.1901     3      796.3598      770.9983    70639    3.18%
    263   196      791.4151     3      796.3598      770.9983    70693    3.18%
    264   195        cutoff            796.3598      770.9983    70736    3.18%
Elapsed time = 290.84 sec. (148332.26 ticks, tree = 31.26 MB, solutions = 8)
    286   199        cutoff            796.3598      770.9983    72604    3.18%
    287   200      792.4194     2      796.3598      770.9983    72632    3.18%
    288   199        cutoff            796.3598      770.9983    72670    3.18%
    289   200      792.4321     2      796.3598      770.9983    72681    3.18%
    290   199        cutoff            796.3598      770.9983    72793    3.18%
    291   200      792.4394     3      796.3598      770.9983    72820    3.18%
    292   199        cutoff            796.3598      770.9983    72892    3.18%
    293   200      792.4474     2      796.3598      770.9983    72918    3.18%
    294   201      792.4755     2      796.3598      770.9983    72943    3.18%
    295   200        cutoff            796.3598      770.9983    73040    3.18%
Elapsed time = 299.28 sec. (152882.62 ticks, tree = 31.30 MB, solutions = 8)
    320   210      775.1473     8      796.3598      771.0300    75262    3.18%
    321   211      775.1647     7      796.3598      771.0300    75284    3.18%
    322   212      775.1672     7      796.3598      771.0300    75300    3.18%
    323   213      776.0436     6      796.3598      771.0300    75637    3.18%
    324   214      776.3081     9      796.3598      771.0300    75973    3.18%
    325   215      776.3085     8      796.3598      771.0300    75989    3.18%
    326   216      776.5735     8      796.3598      771.0300    76106    3.18%
    327   217      776.6705     7      796.3598      771.0300    76186    3.18%
    328   218      776.6834     6      796.3598      771.0300    76250    3.18%
    329   219      776.9018     9      796.3598      771.0300    76450    3.18%
Elapsed time = 310.67 sec. (158930.06 ticks, tree = 31.49 MB, solutions = 8)
    346   236      778.6637     6      796.3598      771.0300    78654    3.18%
    347   237      779.1436     7      796.3598      771.0300    78885    3.18%
    348   238      779.2492     6      796.3598      771.0300    79060    3.18%
    349   239      779.3838     6      796.3598      771.0300    79212    3.18%
    350   240      780.2702     8      796.3598      771.0300    79472    3.18%
    351   241      780.3178     8      796.3598      771.0300    79569    3.18%
    352   242      780.4235     7      796.3598      771.0300    79729    3.18%
    353   243      780.4458     8      796.3598      771.0300    79778    3.18%
    354   244      780.5041     6      796.3598      771.0300    79917    3.18%
    355   245      782.6761     7      796.3598      771.0300    80475    3.18%
Elapsed time = 323.61 sec. (165521.41 ticks, tree = 31.74 MB, solutions = 8)
    368   256      794.5220     8      796.3598      771.0300    83120    3.18%
    369   257      794.6295     8      796.3598      771.0300    83261    3.18%
    370   258      794.9669     8      796.3598      771.0300    83383    3.18%
    371   257        cutoff            796.3598      771.0300    83535    3.18%
    372   256        cutoff            796.3598      771.0300    83568    3.18%
    373   257      781.5894     7      796.3598      771.0315    84179    3.18%
    374   258      783.2498     6      796.3598      771.0315    84210    3.18%
    375   259      783.2536     4      796.3598      771.0315    84213    3.18%
    376   260      783.4376     5      796.3598      771.0315    84384    3.18%
    377   261      783.4414     4      796.3598      771.0315    84487    3.18%
Elapsed time = 336.16 sec. (171976.36 ticks, tree = 31.90 MB, solutions = 8)
    400   284      784.4406     3      796.3598      771.0315    86154    3.18%
    401   285      784.5208     4      796.3598      771.0315    86177    3.18%
    402   286      784.5563     4      796.3598      771.0315    86240    3.18%
    403   287      784.5850     4      796.3598      771.0315    86245    3.18%
    404   288      784.5902     4      796.3598      771.0315    86248    3.18%
    405   289      784.5908     4      796.3598      771.0315    86257    3.18%
    406   290      784.5914     4      796.3598      771.0315    86263    3.18%
    407   291      784.6051     4      796.3598      771.0315    86276    3.18%
    408   292      784.6242     5      796.3598      771.0315    86331    3.18%
    409   293      784.6331     5      796.3598      771.0315    86360    3.18%
Elapsed time = 345.09 sec. (176621.07 ticks, tree = 32.20 MB, solutions = 8)
    439   323      787.1455     3      796.3598      771.0315    88974    3.18%
    440   324      787.2967     4      796.3598      771.0315    89203    3.18%
    441   325      787.3012     4      796.3598      771.0315    89216    3.18%
    442   326      787.3969     4      796.3598      771.0315    89332    3.18%
    443   327      787.4133     4      796.3598      771.0315    89370    3.18%
    444   328      787.4756     5      796.3598      771.0315    89400    3.18%
    445   329      787.4964     3      796.3598      771.0315    89488    3.18%
    446   330      787.5462     3      796.3598      771.0315    89539    3.18%
    447   331      787.5553     3      796.3598      771.0315    89568    3.18%
    448   332      787.5556     2      796.3598      771.0315    89573    3.18%
Elapsed time = 356.06 sec. (182192.75 ticks, tree = 32.58 MB, solutions = 8)
    472   356      793.9358     4      796.3598      771.0315    92272    3.18%
    473   356      795.2795     4      796.3598      771.0315    92576    3.18%
    474   357      795.4710     4      796.3598      771.0315    92726    3.18%
    475   357      796.0456     4      796.3598      771.0315    92952    3.18%
    476   357      796.0520     3      796.3598      771.0315    93017    3.18%
    477   356        cutoff            796.3598      771.0315    93033    3.18%
    478   357      771.2343    12      796.3598      771.0807    93231    3.17%
    479   358      772.9063    12      796.3598      771.0807    93253    3.17%
    480   359      772.9065    11      796.3598      771.0807    93256    3.17%
    481   360      773.0191    10      796.3598      771.0807    93443    3.17%
Elapsed time = 368.25 sec. (188426.66 ticks, tree = 32.85 MB, solutions = 8)
    494   373      775.5978     9      796.3598      771.0807    96020    3.17%
    495   374      775.6547     9      796.3598      771.0807    96160    3.17%
    496   375      775.8031     9      796.3598      771.0807    96469    3.17%
    497   376      775.8080     8      796.3598      771.0807    96537    3.17%
    498   377      775.8152     7      796.3598      771.0807    96564    3.17%
    499   378      776.4030     7      796.3598      771.0807    96852    3.17%
    500   379      776.6089     8      796.3598      771.0807    97039    3.17%
    501   380      776.9843     6      796.3598      771.0807    97262    3.17%
    502   381      777.1019     6      796.3598      771.0807    97385    3.17%
    503   382      777.4776     8      796.3598      771.0807    97596    3.17%
Elapsed time = 380.80 sec. (194841.77 ticks, tree = 33.06 MB, solutions = 8)
    519   398      783.6797     7      796.3598      771.0807   100439    3.17%
    520   399      783.7376     9      796.3598      771.0807   100548    3.17%
    521   400      784.5411     8      796.3598      771.0807   101080    3.17%
    522   401      784.5435     6      796.3598      771.0807   101131    3.17%
    523   402      784.5634     7      796.3598      771.0807   101174    3.17%
    524   403      784.9958     8      796.3598      771.0807   101284    3.17%
    525   404      785.0175     7      796.3598      771.0807   101314    3.17%
    526   405      785.7040    10      796.3598      771.0807   101881    3.17%
    527   406      785.7118     8      796.3598      771.0807   101960    3.17%
Sending CtrlC signal

Flow cuts applied:  24
Mixed integer rounding cuts applied:  42

Root node processing (before b&c):
  Real time             =   78.59 sec. (41767.98 ticks)
Sequential b&c:
  Real time             =  324.38 sec. (164602.97 ticks)
                          ------------
Total (root+branch&cut) =  402.97 sec. (206370.96 ticks)
MIP status(113): aborted
Cplex Time: 402.98sec (det. 206370.97 ticks)
Fixing integer variables, and solving final LP...
Tried aggregator 1 time.
DUAL formed by presolve
LP Presolve eliminated 113797 rows and 4004 columns.
Aggregator did 18 substitutions.
Reduced LP has 1035 rows, 12222 columns, and 33840 nonzeros.
Presolve time = 0.05 sec. (41.34 ticks)

Iteration log . . .
Iteration:     1    Objective     =           395.853333
Iteration:   233    Objective     =           395.853333
Iteration:   426    Objective     =           395.853333
Perturbation started.
Iteration:   501    Objective     =           395.853333
Iteration:   645    Objective     =           395.866012
Iteration:   798    Objective     =           420.278885
Iteration:   940    Objective     =           500.595063
Iteration:  1073    Objective     =           679.516719
Iteration:  1210    Objective     =           776.846780
Iteration:  1341    Objective     =           795.692066
Iteration:  1461    Objective     =           796.321308
Removing perturbation.
Fixed MIP status(1): optimal
Cplex Time: 0.16sec (det. 119.29 ticks)

Problem aborted.

MIP Solution:          796.359844    (109711 iterations, 528 nodes)
Final Solve:           796.359844    (1535 iterations)

Best possible:         771.080719
Absolute gap:           25.279125
Relative gap:            0.031743

Terminate batch job (Y/N)? 
--- Restarting execution
--- MasterOPF.gms(463) 135 Mb
--- Reading solution for model opf
--- MasterOPF.gms(463) 141 Mb
--- Executing after solve: elapsed 0:06:49.509
--- MasterOPF.gms(531) 142 Mb
--- Putfile OPF_RES \\win.pass.psu.edu\jvb5999\Documents\GitHub\TransExpand\DC_OPF_DetEQ\OPF_results.txt
*** Status: Normal completion
--- Job MasterOPF.gms Stop 09/08/17 22:27:52 elapsed 0:06:49.559
